# SCIP version 3.0.2.1

detection/emphfast/enabled = TRUE
detection/smartscore/enabled = FALSE
detection/classification/maxnclassesperpartition = 2
detection/classification/maxnclassesperpartitionforlargeprobs = 1
